problems/csplib-prob056/sonet-models/noch/O2/lingeling/model_3_1-s3ring14-solution000001.solution
language Essence 1.3

letting network be
        mset({}, {1, 2, 9, 10, 11}, {1, 4, 6, 7, 12}, {2, 3, 4, 13}, {2, 3, 4, 13}, {3, 5, 6, 8, 11}, {3, 5, 7, 10})
$ Here is a simple "visualisation" for the value above.
$ 
$  1  2  9 10 11
$  1  4  6  7 12
$  2  3  4 13
$  2  3  4 13
$  3  5  6  8 11
$  3  5  7 10

